POSCAR
1.0
5.7320000000 0.0000000000 0.0000000000
0.0000000000 5.7320000000 0.0000000000
0.0000000000 0.0000000000 5.7320000000
Fe
16
Direct
0.0000000000 0.0000000000 0.0000000000
0.0000000000 0.0000000000 0.5000000000
0.0000000000 0.5000000000 0.0000000000
0.0000000000 0.5000000000 0.5000000000
0.5000000000 0.0000000000 0.0000000000
0.5000000000 0.0000000000 0.5000000000
0.5000000000 0.5000000000 0.0000000000
0.5000000000 0.5000000000 0.5000000000
0.2500000000 0.2500000000 0.2500000000
0.2500000000 0.2500000000 0.7500000000
0.2500000000 0.7500000000 0.2500000000
0.2500000000 0.7500000000 0.7500000000
0.7500000000 0.2500000000 0.2500000000
0.7500000000 0.2500000000 0.7500000000
0.7500000000 0.7500000000 0.2500000000
0.7500000000 0.7500000000 0.7500000000
