# Pristine Si primitive-cell reference bands on the same GXWGLWX path
# (primitive fractional coordinates), for overlaying the unfolded
# supercell result.
ndtset 2
acell 3*10.26
rprim 0.0 0.5 0.5
      0.5 0.0 0.5
      0.5 0.5 0.0
ntypat 1
znucl 14
natom 2
typat 1 1
xred
  0.0 0.0 0.0
  0.25 0.25 0.25
ixc 7
ecut 25
nband 12
iomode 3
chksymbreak 0
occopt 3
tsmear 0.005
diemac 12.0
pp_dirpath "."
pseudos "14-Si.nlcc.fhi"
iscf1 17
tolvrs1 1.0d-10
nstep1 80
kptopt1 1
ngkpt1 8 8 8
prtden1 1
prtwf1 0
getden2 1
iscf2 -2
tolwfr2 1.0d-16
nstep2 500
kptopt2 0
nkpt2 305
kpt2
  0.0000000000 0.0000000000 0.0000000000
  0.0076923077 0.0000000000 0.0076923077
  0.0153846154 0.0000000000 0.0153846154
  0.0230769231 0.0000000000 0.0230769231
  0.0307692308 0.0000000000 0.0307692308
  0.0384615385 0.0000000000 0.0384615385
  0.0461538462 0.0000000000 0.0461538462
  0.0538461538 0.0000000000 0.0538461538
  0.0615384615 0.0000000000 0.0615384615
  0.0692307692 0.0000000000 0.0692307692
  0.0769230769 0.0000000000 0.0769230769
  0.0846153846 0.0000000000 0.0846153846
  0.0923076923 0.0000000000 0.0923076923
  0.1000000000 0.0000000000 0.1000000000
  0.1076923077 0.0000000000 0.1076923077
  0.1153846154 0.0000000000 0.1153846154
  0.1230769231 0.0000000000 0.1230769231
  0.1307692308 0.0000000000 0.1307692308
  0.1384615385 0.0000000000 0.1384615385
  0.1461538462 0.0000000000 0.1461538462
  0.1538461538 0.0000000000 0.1538461538
  0.1615384615 0.0000000000 0.1615384615
  0.1692307692 0.0000000000 0.1692307692
  0.1769230769 0.0000000000 0.1769230769
  0.1846153846 0.0000000000 0.1846153846
  0.1923076923 0.0000000000 0.1923076923
  0.2000000000 0.0000000000 0.2000000000
  0.2076923077 0.0000000000 0.2076923077
  0.2153846154 0.0000000000 0.2153846154
  0.2230769231 0.0000000000 0.2230769231
  0.2307692308 0.0000000000 0.2307692308
  0.2384615385 0.0000000000 0.2384615385
  0.2461538462 0.0000000000 0.2461538462
  0.2538461538 0.0000000000 0.2538461538
  0.2615384615 0.0000000000 0.2615384615
  0.2692307692 0.0000000000 0.2692307692
  0.2769230769 0.0000000000 0.2769230769
  0.2846153846 0.0000000000 0.2846153846
  0.2923076923 0.0000000000 0.2923076923
  0.3000000000 0.0000000000 0.3000000000
  0.3076923077 0.0000000000 0.3076923077
  0.3153846154 0.0000000000 0.3153846154
  0.3230769231 0.0000000000 0.3230769231
  0.3307692308 0.0000000000 0.3307692308
  0.3384615385 0.0000000000 0.3384615385
  0.3461538462 0.0000000000 0.3461538462
  0.3538461538 0.0000000000 0.3538461538
  0.3615384615 0.0000000000 0.3615384615
  0.3692307692 0.0000000000 0.3692307692
  0.3769230769 0.0000000000 0.3769230769
  0.3846153846 0.0000000000 0.3846153846
  0.3923076923 0.0000000000 0.3923076923
  0.4000000000 0.0000000000 0.4000000000
  0.4076923077 0.0000000000 0.4076923077
  0.4153846154 0.0000000000 0.4153846154
  0.4230769231 0.0000000000 0.4230769231
  0.4307692308 0.0000000000 0.4307692308
  0.4384615385 0.0000000000 0.4384615385
  0.4461538462 0.0000000000 0.4461538462
  0.4538461538 0.0000000000 0.4538461538
  0.4615384615 0.0000000000 0.4615384615
  0.4692307692 0.0000000000 0.4692307692
  0.4769230769 0.0000000000 0.4769230769
  0.4846153846 0.0000000000 0.4846153846
  0.4923076923 0.0000000000 0.4923076923
  0.5000000000 0.0000000000 0.5000000000
  0.5000000000 0.0075757576 0.5075757576
  0.5000000000 0.0151515152 0.5151515152
  0.5000000000 0.0227272727 0.5227272727
  0.5000000000 0.0303030303 0.5303030303
  0.5000000000 0.0378787879 0.5378787879
  0.5000000000 0.0454545455 0.5454545455
  0.5000000000 0.0530303030 0.5530303030
  0.5000000000 0.0606060606 0.5606060606
  0.5000000000 0.0681818182 0.5681818182
  0.5000000000 0.0757575758 0.5757575758
  0.5000000000 0.0833333333 0.5833333333
  0.5000000000 0.0909090909 0.5909090909
  0.5000000000 0.0984848485 0.5984848485
  0.5000000000 0.1060606061 0.6060606061
  0.5000000000 0.1136363636 0.6136363636
  0.5000000000 0.1212121212 0.6212121212
  0.5000000000 0.1287878788 0.6287878788
  0.5000000000 0.1363636364 0.6363636364
  0.5000000000 0.1439393939 0.6439393939
  0.5000000000 0.1515151515 0.6515151515
  0.5000000000 0.1590909091 0.6590909091
  0.5000000000 0.1666666667 0.6666666667
  0.5000000000 0.1742424242 0.6742424242
  0.5000000000 0.1818181818 0.6818181818
  0.5000000000 0.1893939394 0.6893939394
  0.5000000000 0.1969696970 0.6969696970
  0.5000000000 0.2045454545 0.7045454545
  0.5000000000 0.2121212121 0.7121212121
  0.5000000000 0.2196969697 0.7196969697
  0.5000000000 0.2272727273 0.7272727273
  0.5000000000 0.2348484848 0.7348484848
  0.5000000000 0.2424242424 0.7424242424
  0.5000000000 0.2500000000 0.7500000000
  0.4930555556 0.2465277778 0.7395833333
  0.4861111111 0.2430555556 0.7291666667
  0.4791666667 0.2395833333 0.7187500000
  0.4722222222 0.2361111111 0.7083333333
  0.4652777778 0.2326388889 0.6979166667
  0.4583333333 0.2291666667 0.6875000000
  0.4513888889 0.2256944444 0.6770833333
  0.4444444444 0.2222222222 0.6666666667
  0.4375000000 0.2187500000 0.6562500000
  0.4305555556 0.2152777778 0.6458333333
  0.4236111111 0.2118055556 0.6354166667
  0.4166666667 0.2083333333 0.6250000000
  0.4097222222 0.2048611111 0.6145833333
  0.4027777778 0.2013888889 0.6041666667
  0.3958333333 0.1979166667 0.5937500000
  0.3888888889 0.1944444444 0.5833333333
  0.3819444444 0.1909722222 0.5729166667
  0.3750000000 0.1875000000 0.5625000000
  0.3680555556 0.1840277778 0.5520833333
  0.3611111111 0.1805555556 0.5416666667
  0.3541666667 0.1770833333 0.5312500000
  0.3472222222 0.1736111111 0.5208333333
  0.3402777778 0.1701388889 0.5104166667
  0.3333333333 0.1666666667 0.5000000000
  0.3263888889 0.1631944444 0.4895833333
  0.3194444444 0.1597222222 0.4791666667
  0.3125000000 0.1562500000 0.4687500000
  0.3055555556 0.1527777778 0.4583333333
  0.2986111111 0.1493055556 0.4479166667
  0.2916666667 0.1458333333 0.4375000000
  0.2847222222 0.1423611111 0.4270833333
  0.2777777778 0.1388888889 0.4166666667
  0.2708333333 0.1354166667 0.4062500000
  0.2638888889 0.1319444444 0.3958333333
  0.2569444444 0.1284722222 0.3854166667
  0.2500000000 0.1250000000 0.3750000000
  0.2430555556 0.1215277778 0.3645833333
  0.2361111111 0.1180555556 0.3541666667
  0.2291666667 0.1145833333 0.3437500000
  0.2222222222 0.1111111111 0.3333333333
  0.2152777778 0.1076388889 0.3229166667
  0.2083333333 0.1041666667 0.3125000000
  0.2013888889 0.1006944444 0.3020833333
  0.1944444444 0.0972222222 0.2916666667
  0.1875000000 0.0937500000 0.2812500000
  0.1805555556 0.0902777778 0.2708333333
  0.1736111111 0.0868055556 0.2604166667
  0.1666666667 0.0833333333 0.2500000000
  0.1597222222 0.0798611111 0.2395833333
  0.1527777778 0.0763888889 0.2291666667
  0.1458333333 0.0729166667 0.2187500000
  0.1388888889 0.0694444444 0.2083333333
  0.1319444444 0.0659722222 0.1979166667
  0.1250000000 0.0625000000 0.1875000000
  0.1180555556 0.0590277778 0.1770833333
  0.1111111111 0.0555555556 0.1666666667
  0.1041666667 0.0520833333 0.1562500000
  0.0972222222 0.0486111111 0.1458333333
  0.0902777778 0.0451388889 0.1354166667
  0.0833333333 0.0416666667 0.1250000000
  0.0763888889 0.0381944444 0.1145833333
  0.0694444444 0.0347222222 0.1041666667
  0.0625000000 0.0312500000 0.0937500000
  0.0555555556 0.0277777778 0.0833333333
  0.0486111111 0.0243055556 0.0729166667
  0.0416666667 0.0208333333 0.0625000000
  0.0347222222 0.0173611111 0.0520833333
  0.0277777778 0.0138888889 0.0416666667
  0.0208333333 0.0104166667 0.0312500000
  0.0138888889 0.0069444444 0.0208333333
  0.0069444444 0.0034722222 0.0104166667
  0.0000000000 0.0000000000 0.0000000000
  0.0089285714 0.0089285714 0.0089285714
  0.0178571429 0.0178571429 0.0178571429
  0.0267857143 0.0267857143 0.0267857143
  0.0357142857 0.0357142857 0.0357142857
  0.0446428571 0.0446428571 0.0446428571
  0.0535714286 0.0535714286 0.0535714286
  0.0625000000 0.0625000000 0.0625000000
  0.0714285714 0.0714285714 0.0714285714
  0.0803571429 0.0803571429 0.0803571429
  0.0892857143 0.0892857143 0.0892857143
  0.0982142857 0.0982142857 0.0982142857
  0.1071428571 0.1071428571 0.1071428571
  0.1160714286 0.1160714286 0.1160714286
  0.1250000000 0.1250000000 0.1250000000
  0.1339285714 0.1339285714 0.1339285714
  0.1428571429 0.1428571429 0.1428571429
  0.1517857143 0.1517857143 0.1517857143
  0.1607142857 0.1607142857 0.1607142857
  0.1696428571 0.1696428571 0.1696428571
  0.1785714286 0.1785714286 0.1785714286
  0.1875000000 0.1875000000 0.1875000000
  0.1964285714 0.1964285714 0.1964285714
  0.2053571429 0.2053571429 0.2053571429
  0.2142857143 0.2142857143 0.2142857143
  0.2232142857 0.2232142857 0.2232142857
  0.2321428571 0.2321428571 0.2321428571
  0.2410714286 0.2410714286 0.2410714286
  0.2500000000 0.2500000000 0.2500000000
  0.2589285714 0.2589285714 0.2589285714
  0.2678571429 0.2678571429 0.2678571429
  0.2767857143 0.2767857143 0.2767857143
  0.2857142857 0.2857142857 0.2857142857
  0.2946428571 0.2946428571 0.2946428571
  0.3035714286 0.3035714286 0.3035714286
  0.3125000000 0.3125000000 0.3125000000
  0.3214285714 0.3214285714 0.3214285714
  0.3303571429 0.3303571429 0.3303571429
  0.3392857143 0.3392857143 0.3392857143
  0.3482142857 0.3482142857 0.3482142857
  0.3571428571 0.3571428571 0.3571428571
  0.3660714286 0.3660714286 0.3660714286
  0.3750000000 0.3750000000 0.3750000000
  0.3839285714 0.3839285714 0.3839285714
  0.3928571429 0.3928571429 0.3928571429
  0.4017857143 0.4017857143 0.4017857143
  0.4107142857 0.4107142857 0.4107142857
  0.4196428571 0.4196428571 0.4196428571
  0.4285714286 0.4285714286 0.4285714286
  0.4375000000 0.4375000000 0.4375000000
  0.4464285714 0.4464285714 0.4464285714
  0.4553571429 0.4553571429 0.4553571429
  0.4642857143 0.4642857143 0.4642857143
  0.4732142857 0.4732142857 0.4732142857
  0.4821428571 0.4821428571 0.4821428571
  0.4910714286 0.4910714286 0.4910714286
  0.5000000000 0.5000000000 0.5000000000
  0.5000000000 0.4945652174 0.5054347826
  0.5000000000 0.4891304348 0.5108695652
  0.5000000000 0.4836956522 0.5163043478
  0.5000000000 0.4782608696 0.5217391304
  0.5000000000 0.4728260870 0.5271739130
  0.5000000000 0.4673913043 0.5326086957
  0.5000000000 0.4619565217 0.5380434783
  0.5000000000 0.4565217391 0.5434782609
  0.5000000000 0.4510869565 0.5489130435
  0.5000000000 0.4456521739 0.5543478261
  0.5000000000 0.4402173913 0.5597826087
  0.5000000000 0.4347826087 0.5652173913
  0.5000000000 0.4293478261 0.5706521739
  0.5000000000 0.4239130435 0.5760869565
  0.5000000000 0.4184782609 0.5815217391
  0.5000000000 0.4130434783 0.5869565217
  0.5000000000 0.4076086957 0.5923913043
  0.5000000000 0.4021739130 0.5978260870
  0.5000000000 0.3967391304 0.6032608696
  0.5000000000 0.3913043478 0.6086956522
  0.5000000000 0.3858695652 0.6141304348
  0.5000000000 0.3804347826 0.6195652174
  0.5000000000 0.3750000000 0.6250000000
  0.5000000000 0.3695652174 0.6304347826
  0.5000000000 0.3641304348 0.6358695652
  0.5000000000 0.3586956522 0.6413043478
  0.5000000000 0.3532608696 0.6467391304
  0.5000000000 0.3478260870 0.6521739130
  0.5000000000 0.3423913043 0.6576086957
  0.5000000000 0.3369565217 0.6630434783
  0.5000000000 0.3315217391 0.6684782609
  0.5000000000 0.3260869565 0.6739130435
  0.5000000000 0.3206521739 0.6793478261
  0.5000000000 0.3152173913 0.6847826087
  0.5000000000 0.3097826087 0.6902173913
  0.5000000000 0.3043478261 0.6956521739
  0.5000000000 0.2989130435 0.7010869565
  0.5000000000 0.2934782609 0.7065217391
  0.5000000000 0.2880434783 0.7119565217
  0.5000000000 0.2826086957 0.7173913043
  0.5000000000 0.2771739130 0.7228260870
  0.5000000000 0.2717391304 0.7282608696
  0.5000000000 0.2663043478 0.7336956522
  0.5000000000 0.2608695652 0.7391304348
  0.5000000000 0.2554347826 0.7445652174
  0.5000000000 0.2500000000 0.7500000000
  0.5000000000 0.2421875000 0.7421875000
  0.5000000000 0.2343750000 0.7343750000
  0.5000000000 0.2265625000 0.7265625000
  0.5000000000 0.2187500000 0.7187500000
  0.5000000000 0.2109375000 0.7109375000
  0.5000000000 0.2031250000 0.7031250000
  0.5000000000 0.1953125000 0.6953125000
  0.5000000000 0.1875000000 0.6875000000
  0.5000000000 0.1796875000 0.6796875000
  0.5000000000 0.1718750000 0.6718750000
  0.5000000000 0.1640625000 0.6640625000
  0.5000000000 0.1562500000 0.6562500000
  0.5000000000 0.1484375000 0.6484375000
  0.5000000000 0.1406250000 0.6406250000
  0.5000000000 0.1328125000 0.6328125000
  0.5000000000 0.1250000000 0.6250000000
  0.5000000000 0.1171875000 0.6171875000
  0.5000000000 0.1093750000 0.6093750000
  0.5000000000 0.1015625000 0.6015625000
  0.5000000000 0.0937500000 0.5937500000
  0.5000000000 0.0859375000 0.5859375000
  0.5000000000 0.0781250000 0.5781250000
  0.5000000000 0.0703125000 0.5703125000
  0.5000000000 0.0625000000 0.5625000000
  0.5000000000 0.0546875000 0.5546875000
  0.5000000000 0.0468750000 0.5468750000
  0.5000000000 0.0390625000 0.5390625000
  0.5000000000 0.0312500000 0.5312500000
  0.5000000000 0.0234375000 0.5234375000
  0.5000000000 0.0156250000 0.5156250000
  0.5000000000 0.0078125000 0.5078125000
  0.5000000000 0.0000000000 0.5000000000
wtk2 305*0.003278688525
istwfk2 305*1
prtwf2 1
